
Gurobi 6.5.2 (linux64) logging started Tue Mar 14 21:17:40 2017


Gurobi 6.5.2 (linux64) logging started Tue Mar 14 21:17:40 2017

Optimize a model with 41 rows, 115 columns and 231 nonzeros
Coefficient statistics:
  Matrix range    [1e+00, 2e+00]
  Objective range [4e+00, 1e+02]
  Bounds range    [1e+00, 1e+00]
  RHS range       [1e+00, 1e+00]
Found heuristic solution: objective 1114
Presolve removed 21 rows and 20 columns
Presolve time: 0.00s
Presolved: 20 rows, 95 columns, 190 nonzeros
Variable types: 0 continuous, 95 integer (95 binary)

Root relaxation: objective 6.100000e+02, 25 iterations, 0.00 seconds

    Nodes    |    Current Node    |     Objective Bounds      |     Work
 Expl Unexpl |  Obj  Depth IntInf | Incumbent    BestBd   Gap | It/Node Time

     0     0  610.00000    0    6 1114.00000  610.00000  45.2%     -    0s
     0     0  619.00000    0    4 1114.00000  619.00000  44.4%     -    0s
     0     0  622.00000    0   16 1114.00000  622.00000  44.2%     -    0s
     0     0  622.00000    0   15 1114.00000  622.00000  44.2%     -    0s
     0     0  622.00000    0   15 1114.00000  622.00000  44.2%     -    0s
H    0     2                     683.0000000  622.00000  8.93%     -    0s
     0     2  622.00000    0   15  683.00000  622.00000  8.93%     -    0s
*   24     8               7     649.0000000  633.50000  2.39%   3.9    0s
*   54     0               5     648.0000000  644.00000  0.62%   2.9    0s

Cutting planes:
  Gomory: 3
  MIR: 2
  Zero half: 2
  Lazy constraints: 22

Explored 64 nodes (214 simplex iterations) in 0.01 seconds
Thread count was 8 (of 8 available processors)

Optimal solution found (tolerance 1.00e-04)
Best objective 6.480000000000e+02, best bound 6.480000000000e+02, gap 0.0%
